NumActors = 5;
NumScenes = 20;
NumLocations = 3;
NumPrecedences = 6;

ActorCost = [9, 16, 20, 20, 14];
LocationCost = [0, 23, 9];
SceneDuration = [4, 1, 5, 4, 5, 3, 3, 5, 3, 4, 1, 4, 5, 5, 2, 3, 2, 2, 5, 4];
SceneLocation = [1, 2, 0, 2, 2, 1, 1, 2, 0, 0, 0, 1, 2, 2, 2, 2, 2, 1, 2, 2];
Presence = [|1, 1, 0, 0, 1, 1, 0, 0, 0, 1, 1, 1, 0, 1, 1, 1, 0, 1, 1, 0
            |1, 1, 0, 0, 1, 0, 1, 1, 0, 1, 0, 1, 1, 0, 0, 1, 0, 1, 1, 1
            |0, 1, 1, 0, 0, 1, 0, 1, 0, 1, 1, 1, 0, 0, 0, 1, 1, 1, 1, 1
            |1, 1, 0, 0, 1, 0, 1, 0, 0, 1, 0, 0, 0, 1, 1, 0, 1, 1, 0, 0
            |0, 0, 1, 1, 0, 1, 1, 0, 1, 1, 1, 0, 1, 0, 1, 1, 1, 0, 0, 0|];
Precedences = [|2, 19
               |2, 7
               |16, 11
               |3, 11
               |16, 12
               |12, 0|];